Route 1: 48 11 49 36 47 46 19 7
Route 2: 2 42 44 17 8 45 5 18 6
Route 3: 12 26 21 23 22 39 4 41
Route 4: 1 31 10 32 9 20 30 33 50
Route 5: 40 15 43 38 16 14 13 37
Route 6: 27 28 35 34 29 3 24 25
Vehicles: 6
Distance: 798.97
